0000000000000000000000000000000000000000
0000000000000000000000000000000000000000
0000000000000000000000000000000000000000
0000000000000000000000000000000000000000
0000000000000000000000000000000000000000
0000000000000000000000000000000000000000
0000000000000000111111111111111111000000
0000000000000000101110110110111010000000
0000000000111111111111111111111111000000
0000000001111111111111111111111110000000
0000000001111111111111111110111000000000
0000000001101101101110110000000000000000
0000000000111111111110111000000000000000
0000000000101111111100110000000000000000
0000000000001101101000000000000000000000
0000000000000001111110000000000000000000
0000000000000001111110000000000000000000
0000000000000001101100000000000000000000
0000000000000000111111111000000000000000
0000000000000000101111111110000000000000
0000000000000000001111111111000000000000
0000000000000000000110110110000000000000
0000000000000000000011111111000000000000
0000000000000000000010111111110000000000
0000000000000000000000010110100000000000
0000000000000000000111111111110000000000
0000000000000000111111111111100000000000
0000000000000000101110110110000000000000
0000000000000111111111111110000000000000
0000000000111111111111111100000000000000
0000000011111111111111110000000000000000
0000000011101101101110000000000000000000
0000011111111111111100000000000000000000
0000011111111111101000000000000000000000
0000011011101101000000000000000000000000
0000000000000000000000000000000000000000
0000000000000000000000000000000000000000
0000000000000000000000000000000000000000
0000000000000000000000000000000000000000
0000000000000000000000000000000000000000
0 0 0 0 0 1 0 0 0 0 
0000000000000000000000000000000000000000
0000000000000000000000000000000000000000
0000000000000000000000000000000000000000
0000000000000000000000000000000000000000
0000000000000000000000000000000000000000
0000000000000000000011111111000000000000
0000000000000000000111111111000000000000
0000000000000000000110110110000000000000
0000000000000000001111111111111000000000
0000000000000001111111111111111000000000
0000000000000001111111111111111000000000
0000000000000001101110110110110000000000
0000000000000111111111111111111000000000
0000000000001111111111111110111100000000
0000000000001101101110110000111000000000
0000000000111111111100000000111100000000
0000000001111111111100000000111100000000
0000000001101101101000000000111000000000
0000000001111110000000000000111100000000
0000000001111100000000000000111100000000
0000000011111100000000000000111100000000
0000000011101000000000000000111000000000
0000000011111100000000000111111100000000
0000000011111000000000011111111000000000
0000000011100000000000010110110000000000
0000000011110000000000111111000000000000
0000000011110000000011111110000000000000
0000000011100000000010110100000000000000
0000000011111111111111111110000000000000
0000000011111111111111110100000000000000
0000000011111111111110100000000000000000
0000000011101101101100000000000000000000
0000000001111111111100000000000000000000
0000000001101101101000000000000000000000
0000000000000000000000000000000000000000
0000000000000000000000000000000000000000
0000000000000000000000000000000000000000
0000000000000000000000000000000000000000
0000000000000000000000000000000000000000
0000000000000000000000000000000000000000
1 0 0 0 0 0 0 0 0 0 
0000000000000000000000000000000000000000
0000000000000000000000000000000000000000
0000000000000000000000000000000000000000
0000000000000000000000000000000000000000
0000000000000000000000000000000000000000
0000000000000000000000000000000000000000
0000000000000000000000000000111100000000
0000000000000000000000000000111000000000
0000011100000000000000000000111100000000
0000011100000000000000000011111100000000
0000011100000000000000000011111000000000
0000011000000000000000000010110000000000
0000011100000000000000000011111000000000
0001111100000000000000000011111000000000
0001011000000000000000000010110000000000
0001111100000000000000000111111000000000
0001111100000000000000000111111000000000
0001011000000000000000000110110000000000
0001111100000000000011111111110000000000
0001111100001111111111111111110000000000
0001111111111111111111111111100000000000
0001011011101101101110110110000000000000
0000011111111111100000011111000000000000
0000011011101101000000011111000000000000
0000000000000000000000010110000000000000
0000000000000000000000011111000000000000
0000000000000000000000011111000000000000
0000000000000000000000010110000000000000
0000000000000000000000011111000000000000
0000000000000000000000011111000000000000
0000000000000000000000011111000000000000
0000000000000000000000010110000000000000
0000000000000000000000011111000000000000
0000000000000000000000011111000000000000
0000000000000000000000010110000000000000
0000000000000000000000000000000000000000
0000000000000000000000000000000000000000
0000000000000000000000000000000000000000
0000000000000000000000000000000000000000
0000000000000000000000000000000000000000
0 0 0 0 1 0 0 0 0 0 
0000000000000000000000000000000000000000
0000000000000000000000000000000000000000
0000000000000000000000000000000000000000
0000000000000000000000000000000000000000
0000000000000000000000000000000000000000
0000000000000000000000000000000000000000
0000000000000000000000000111111000000000
0000000000000000000000000110110000000000
0000000000000000000000011111111000000000
0000000000000000000000011111111000000000
0000000000000000000000111111111000000000
0000000000000000000000110110110000000000
0000000000000000000011111111000000000000
0000000000000000000011111110000000000000
0000000000000000000010110100000000000000
0000000000000000000111111110000000000000
0000000000000000001111111100000000000000
0000000000000000001110110000000000000000
0000000000000000001111111000000000000000
0000000000000000111111110000000000000000
0000000000000001111111100000000000000000
0000000000000001101110000000000000000000
0000000000000001111111000000000000000000
0000000000000111111110000000000000000000
0000000000000101101100000000000000000000
0000000000000111111110000000000000000000
0000000000000111111100000000000000000000
0000000000000101101000000000000000000000
0000000000001111111100000000000000000000
0000000000111111111100000000000000000000
0000000000111111101000000000000000000000
0000000000101101000000000000000000000000
0000000000111111100000000000000000000000
0000000000111111100000000000000000000000
0000000000101101000000000000000000000000
0000000000000000000000000000000000000000
0000000000000000000000000000000000000000
0000000000000000000000000000000000000000
0000000000000000000000000000000000000000
0000000000000000000000000000000000000000
0 1 0 0 0 0 0 0 0 0 
0000000000000000000000000000000000000000
0000000000000000000000000000000000000000
0000000000000000000000000000000000000000
0000000000000000000000000000000000000000
0000000000000000000000000000000000000000
0000000000000000000000000000000000000000
0000000000000000000000000000000000000000
0000000000000000000000000000000000000000
0000000000000000000000000000000000000000
0000000000000000111111111111110000000000
0000000000000001111111111111110000000000
0000000000000001101110110110100000000000
0000000000001111111111111111110000000000
0000000000001111111110111111110000000000
0000000000001101101000110110100000000000
0000000000111111110000111111000000000000
0000000001111111100111111110000000000000
0000000001101101000110110100000000000000
0000000011111100001111111110000000000000
0000000011111111111111111100000000000000
0000000011111111111111110000000000000000
0000000011101101101110100000000000000000
0000000001111111111111110000000000000000
0000000001101101101111110000000000000000
0000000000000000001110100000000000000000
0000000000000000001111110000000000000000
0000000000000000001111110000000000000000
0000000000000000000110100000000000000000
0000000000000000001111110000000000000000
0000000000000000001111110000000000000000
0000000000000000001111110000000000000000
0000000000000000001110100000000000000000
0000000000000000000111110000000000000000
0000000000000000000111111000000000000000
0000000000000000000110110000000000000000
0000000000000000000111111110000000000000
0000000000000000000111111110000000000000
0000000000000000000010110100000000000000
0000000000000000000000000000000000000000
0000000000000000000000000000000000000000
0 0 0 0 0 0 0 0 0 1 
0000000000000000000000000000000000000000
0000000000000000000000000000000000000000
0000000000000000000000000000000000000000
0000000000000000000000000000000000000000
0000000000000000000000000000000000000000
0000000000000000000000000000000000000000
0000000000000000000011111111000000000000
0000000000000000000010110110000000000000
0000000000000000001111111111000000000000
0000000000000001111111111111110000000000
0000000000001111111111111111110000000000
0000000000001101101110110110100000000000
0000000000001111111111011111110000000000
0000000000001111111110011111110000000000
0000000000001101101100010110100000000000
0000000000001111110000011111110000000000
0000000000001101100000011111110000000000
0000000000000000000000010110100000000000
0000000000000000001111111111110000000000
0000000000000111111111111111100000000000
0000000000111111111111111111110000000000
0000000000101101101110110110100000000000
0000000001111111110111111111111000000000
0000000011111111101111111111111111100000
0000000011101101001110110110111011000000
0000001111111110111111110111111111100000
0000001111111111111111100110111111100000
0000001011101101101110000000011011000000
0000001111111111111110000000000000000000
0000001111111111111100000000000000000000
0000001111111111101000000000000000000000
0000001011101100000000000000000000000000
0000000000000000000000000000000000000000
0000000000000000000000000000000000000000
0000000000000000000000000000000000000000
0000000000000000000000000000000000000000
0000000000000000000000000000000000000000
0000000000000000000000000000000000000000
0000000000000000000000000000000000000000
0000000000000000000000000000000000000000
0 0 1 0 0 0 0 0 0 0 
0000000000000000000000000000000000000000
0000000000000000000000000000000000000000
0000000000000000000000000000000000000000
0000000000000000000000000000000000000000
0000000000000000000000000000000000000000
0000000000000000111111000000000000000000
0000000000000001111111000000000000000000
0000000000000001101110000000000000000000
0000000000000001111111000000000000000000
0000000000000001111111000000000000000000
0000000000000001111111000000000000000000
0000000000000001101110000000000000000000
0000000000000001111111110000000000000000
0000000000000001111111110000000000000000
0000000000000000101110100000000000000000
0000000000000000001111110000000000000000
0000000000000000001111110000000000000000
0000000000000000001110100000000000000000
0000000000000000001111110000000000000000
0000000000000000001111110000000000000000
0000000000000000001111110000000000000000
0000000000000000001110100000000000000000
0000000000000000001111110000000000000000
0000000000000000001111111000000000000000
0000000000000000001110110000000000000000
0000000000000000001111111000000000000000
0000000000000000001111111000000000000000
0000000000000000001110110000000000000000
0000000000000000000111111110000000000000
0000000000000000000111111110000000000000
0000000000000000000111111110000000000000
0000000000000000000110110100000000000000
0000000000000000000111111110000000000000
0000000000000000000110110100000000000000
0000000000000000000000000000000000000000
0000000000000000000000000000000000000000
0000000000000000000000000000000000000000
0000000000000000000000000000000000000000
0000000000000000000000000000000000000000
0000000000000000000000000000000000000000
0 1 0 0 0 0 0 0 0 0 
0000000000000000000000000000000000000000
0000000000000000000000000000000000000000
0000000000000000000000000000000000000000
0000000000000000000000000000000000000000
0000000000000000000000000000000000000000
0000000000000000000000000000000000000000
0000000000000001111111111111111000000000
0000000000000001101110110110110000000000
0000000000001111111111111111111100000000
0000000000001111111111111111111100000000
0000000000001111111111111111111100000000
0000000000001101101110110110111000000000
0000000000001111110000011111111100000000
0000000000001101100000011111111000000000
0000000000000000000000010110110000000000
0000000000000000000000111111111000000000
0000000000000000000111111111111000000000
0000000000000000000110110110110000000000
0000000000001111111111111111110000000000
0000000000111111111111111110100000000000
0000000000111111111111111111000000000000
0000000000101101101110110110000000000000
0000000000001111111111111111000000000000
0000000000001101101110111111000000000000
0000000000000000000000110110000000000000
0000000000000000000000111111000000000000
0000000011110000000011111111000000000000
0000000011100000000010110110000000000000
0000001111110000001111111111000000000000
0000001111111111111111111110000000000000
0000001111111111111111111100000000000000
0000001011101101101110110000000000000000
0000001111111111111111000000000000000000
0000001011111111111110000000000000000000
0000000011101101100000000000000000000000
0000000000000000000000000000000000000000
0000000000000000000000000000000000000000
0000000000000000000000000000000000000000
0000000000000000000000000000000000000000
0000000000000000000000000000000000000000
0 0 0 1 0 0 0 0 0 0 
0000000000000000000000000000000000000000
0000000000000000000000000000000000000000
0000000000000000000000000000000000000000
0000000000000000000000000000000000000000
0000000000000000000000000000000000000000
0000000000000000000000000000000000000000
0000000000000000111110000000000000000000
0000000000000000101100000000000000000000
0000000000000000111111000000000000000000
0000000000000000111111000000000000000000
0000000000000000111111000000000000000000
0000000000000000101110000000000000000000
0000000000000000111111000000000000000000
0000000000000000111111000000000000000000
0000000000000000101110000000000000000000
0000000000000000111111000000000000000000
0000000000000000101111000000000000000000
0000000000000000001110000000000000000000
0000000000000000001111000000000000000000
0000000000000000001111000000000000000000
0000000000000000001111000000000000000000
0000000000000000001110000000000000000000
0000000000000000001111000000000000000000
0000000000000000001111110000000000000000
0000000000000000001110100000000000000000
0000000000000000001111110000000000000000
0000000000000000001111110000000000000000
0000000000000000000110100000000000000000
0000000000000000000111110000000000000000
0000000000000000000111110000000000000000
0000000000000000000111110000000000000000
0000000000000000000110100000000000000000
0000000000000000000111110000000000000000
0000000000000000000111110000000000000000
0000000000000000000110100000000000000000
0000000000000000000000000000000000000000
0000000000000000000000000000000000000000
0000000000000000000000000000000000000000
0000000000000000000000000000000000000000
0000000000000000000000000000000000000000
0 1 0 0 0 0 0 0 0 0 
0000000000000000000000000000000000000000
0000000000000000000000000000000000000000
0000000000000000000000000000000000000000
0000000000000000000000000000000000000000
0000000000000000000000000000000000000000
0000000000000000000000000000001111000000
0000000000000000000000000000011111000000
0000000000000000000000000000011010000000
0000000000000000000000000000111111000000
0000000000000000000000000000111110000000
0000000000000000111110000011111100000000
0000000000000000101100000010111000000000
0000000000000000111110000011111000000000
0000000000000000111110000111111000000000
0000000000000000101100000110110000000000
0000000000000001111110011111111000000000
0000000000000111111100011111110000000000
0000000000000101101000010110000000000000
0000000000001111110000111111000000000000
0000000001111111111111111110000000000000
0000000001111111111111111100000000000000
0000000001101101101110110000000000000000
0000000011111111111111111111000000000000
0000000011111101111111111110000000000000
0000000011100000101110110100000000000000
0000000011100000111111111110000000000000
0000000011000001111110110100000000000000
0000000000000001101100000000000000000000
0000000000000001111110000000000000000000
0000000000000111111100000000000000000000
0000000000000111111000000000000000000000
0000000000000101100000000000000000000000
0000000000000111110000000000000000000000
0000000000000101100000000000000000000000
0000000000000000000000000000000000000000
0000000000000000000000000000000000000000
0000000000000000000000000000000000000000
0000000000000000000000000000000000000000
0000000000000000000000000000000000000000
0000000000000000000000000000000000000000
0 0 0 0 1 0 0 0 0 0 
0000000000000000000000000000000000000000
0000000000000000000000000000000000000000
0000000000000000000000000000000000000000
0000000000000000000000000000000000000000
0000000000000000000000000000000000000000
0000000000000001111111111000000000000000
0000000000000111111111111000000000000000
0000000000000101101110110000000000000000
0000000000000111111111111110000000000000
0000000000000101111111111110000000000000
0000000000000001111111111110000000000000
0000000000000000101110110100000000000000
0000000000000000111111111110000000000000
0000000000000000101111111110000000000000
0000000000000000001110110100000000000000
0000000000000000111111111110000000000000
0000000000000111111111111110000000000000
0000000000000101101110110100000000000000
0000000000000111111111111110000000000000
0000000000000101111111111110000000000000
0000000000000001111111111110000000000000
0000000000000000101110110100000000000000
0000000000000000000011111111000000000000
0000000000000000000011111111000000000000
0000000000000000000010110110000000000000
0000000000000000000011111110000000000000
0000000011110000000111111110000000000000
0000000011100000000110110100000000000000
0000000011111110111111111110000000000000
0000000011111111111111111100000000000000
0000000011111111111111110000000000000000
0000000001101101101110000000000000000000
0000000000111111111111000000000000000000
0000000000101101101110000000000000000000
0000000000000000000000000000000000000000
0000000000000000000000000000000000000000
0000000000000000000000000000000000000000
0000000000000000000000000000000000000000
0000000000000000000000000000000000000000
0000000000000000000000000000000000000000
0 0 0 1 0 0 0 0 0 0 
0000000000000000000000000000000000000000
0000000000000000000000000000000000000000
0000000000000000000000000000000000000000
0000000000000000000000000000000000000000
0000000000000000000000000000000000000000
0000000000000000000000000000000000000000
0000000000000000000000000000000000000000
0000000000000000000000000000000000000000
0000000000000000000000000000000000000000
0000000000000000000000000000111111111000
0000000000000000000000000111111111111000
0000000000000000000000000110111011010000
0000000000000000000000111111111111100000
0000000000000000000111111111111011000000
0000000000000000000110110110110000000000
0000000000000000000111111000000000000000
0000000000000001111111110000000000000000
0000000000000001101110100000000000000000
0000000000000001111110000000000000000000
0000000000000001111100000000000000000000
0000000000000001111110000000000000000000
0000000000000001101100000000000000000000
0000000000111101111111000000000000000000
0000000011111101111111000000000000000000
0000000011101000101110000000000000000000
0000000011110000111111000000000000000000
0000000011111111111110000000000000000000
0000000011101101101100000000000000000000
0000000001111111111110000000000000000000
0000000001101101101100000000000000000000
0000000000000000000000000000000000000000
0000000000000000000000000000000000000000
0000000000000000000000000000000000000000
0000000000000000000000000000000000000000
0000000000000000000000000000000000000000
0000000000000000000000000000000000000000
0000000000000000000000000000000000000000
0000000000000000000000000000000000000000
0000000000000000000000000000000000000000
0000000000000000000000000000000000000000
0 0 0 0 0 1 0 0 0 0 
0000000000000000000000000000000000000000
0000000000000000000000000000000000000000
0000000000000000000000000000000000000000
0000000000000000000000000000000000000000
0000000000000000000000000000000000000000
0000000000000000000000000000000000000000
0001111111111111111111000000000000000000
0001011011101101101110000000000000000000
0001111111111111111111111110000000000000
0001111111111111111111111110000000000000
0001111111101101101111111110000000000000
0001011011000000000110110100000000000000
0000000000000000000111111110000000000000
0000000000000000111111111100000000000000
0000000000000000101110110000000000000000
0000000000000001111111111000000000000000
0000000000000111111111111000000000000000
0000000000000101101110110000000000000000
0000000000000111111111111111000000000000
0000000000000111111111111111111000000000
0000000000000101111111111111111100000000
0000000000000000101110110110111000000000
0000000000000000000000111111111100000000
0000000000000000000000111111111100000000
0000000000000000000000010110111000000000
0000000000000000000000000111111100000000
0000000000111110000000011111111100000000
0000000000101100000000010110111000000000
0000000001111110000000111111111000000000
0000000001111111100111111111111000000000
0000000001111111111111111111110000000000
0000000001101101101110110110100000000000
0000000001111111111111111111000000000000
0000000001111111111111111110000000000000
0000000000101101101110110000000000000000
0000000000000000000000000000000000000000
0000000000000000000000000000000000000000
0000000000000000000000000000000000000000
0000000000000000000000000000000000000000
0000000000000000000000000000000000000000
0 0 0 1 0 0 0 0 0 0 
0000000000000000000000000000000000000000
0000000000000000000000000000000000000000
0000000000000000000000111110000000000000
0000000000000000000011111110000000000000
0000000000000000000010110100000000000000
0000000000000000001111111110000000000000
0000000000000000111111111100000000000000
0000000000000000101110110000000000000000
0000000000000000111111110000000000000000
0000000000000001111111100000000000000000
0000000000000001111110000000000000000000
0000000000000001101100000000000000000000
0000000000000111111100000000000000000000
0000000000001111111100000000000000000000
0000000000001101101000000000000000000000
0000000000111111110000011111000000000000
0000000000111111110011111111111000000000
0000000000101101100010110110110000000000
0000000000111111110111111111111100000000
0000000001111111101111111111111100000000
0000000001111111111111111111111000000000
0000000001101100101110110110110000000000
0000000001111100111111011111110000000000
0000000001111101111110111111100000000000
0000000001101001101100110110000000000000
0000000001111101111111111111000000000000
0000000001111111111111111110000000000000
0000000001101101101110110000000000000000
0000000001111111111111110000000000000000
0000000001111111111111100000000000000000
0000000000101101101110000000000000000000
0000000000000000000000000000000000000000
0000000000000000000000000000000000000000
0000000000000000000000000000000000000000
0000000000000000000000000000000000000000
0000000000000000000000000000000000000000
0000000000000000000000000000000000000000
0000000000000000000000000000000000000000
0000000000000000000000000000000000000000
0000000000000000000000000000000000000000
0 0 0 0 0 0 1 0 0 0 
0000000000000000000000000000000000000000
0000000000000000000000000000000000000000
0000000000000000000000000000000000000000
0000000000000000000000000000000000000000
0000000000000000000000000000000000000000
0000000000000000000000000000000000000000
0000000000000001111110000000000000000000
0000000000000001101100000000000000000000
0000000000000001111110000000000000000000
0000000000000001111110000000000000000000
0000000000000000111110000000000000000000
0000000000000000101100000000000000000000
0000000000000000111111000000000000000000
0000000000000000111111000000000000000000
0000000000000000101110000000000000000000
0000000000000000111111000000000000000000
0000000000000000111111000000000000000000
0000000000000000101110000000000000000000
0000000000000000111111000000000000000000
0000000000000000111111000000000000000000
0000000000000000111111000000000000000000
0000000000000000101110000000000000000000
0000000000000000111111000000000000000000
0000000000000000111111000000000000000000
0000000000000000101110000000000000000000
0000000000000000111111000000000000000000
0000000000000000111111000000000000000000
0000000000000000101110000000000000000000
0000000000000000111111000000000000000000
0000000000000000111111000000000000000000
0000000000000000101111000000000000000000
0000000000000000001110000000000000000000
0000000000000000001111000000000000000000
0000000000000000001111000000000000000000
0000000000000000001110000000000000000000
0000000000000000000000000000000000000000
0000000000000000000000000000000000000000
0000000000000000000000000000000000000000
0000000000000000000000000000000000000000
0000000000000000000000000000000000000000
0 1 0 0 0 0 0 0 0 0 
